SAT
-116 -124 42 -52 77 -48 -109 -160 23 88 106 57 -47 -8 66 7 -32 17 -135 115 45 22 98 155 2 133 158 123 35 -27 -125 40 73 -91 -172 -132 -38 -142 114 -121 -169 -92 96 -36 128 39 145 -157 46 -61 51 -43 149 50 164 -68 -21 -111 -156 -131 166 12 112 -34 -63 -148 -86 -54 4 71 -94 59 102 -24 -162 101 122 -10 -163 -126 78 -82 -107 167 113 -55 70 -168 3 -120 6 -29 -154 -99 76 64 -175 -165 53 -130 69 58 153 -62 -20 -119 89 -103 -85 -26 105 -104 173 -87 -37 -13 -141 41 -19 161 174 -11 152 -25 -90 -118 60 138 -79 -127 15 -110 80 -75 9 74 -100 -146 -56 140 170 -33 95 143 -93 49 -30 -108 -14 -65 5 150 -44 151 -67 81 84 159 -134 136 18 -129 -16 1 -139 -83 -137 28 -171 31 97 -117 -72 -144 -147 0
